50
1 11081 26196
2 35388 14505
3 30317 28791
4 23039 40961
5 47877 35259
6 9102 47702
7 47165 29485
8 7154 29065
9 22172 37789
10 40526 19431
11 13072 31156
12 31555 11279
13 4454 10945
14 32527 42936
15 16512 6018
16 49852 45977
17 33334 26033
18 29686 39861
19 39226 29167
20 824 10230
21 37151 32813
22 21902 12728
23 18573 11953
24 44081 25891
25 26786 49608
26 37172 6714
27 42965 32649
28 39340 16408
29 3140 2809
30 10663 30119
31 22540 20645
32 25406 35894
33 49526 49753
34 2199 25854
35 21197 41695
36 4780 24071
37 21518 27382
38 33871 18846
39 24147 8587
40 26582 34122
41 27487 10728
42 45189 5811
43 40353 43919
44 42090 27868
45 11748 26065
46 31819 28023
47 12357 24486
48 12580 534
49 15135 32435
50 25669 47883
